c A SAT instance generated from a 3-CNF formula that had 18 clauses and 9 variables
p cnf 9 18
-9 -3 1 0
-2 7 4 0
3 6 -8 0
-9 -4 3 0
-3 6 2 0
-4 3 9 0
6 -5 8 0
2 -8 1 0
-2 -5 -6 0
-4 -3 -5 0
-4 6 -5 0
4 -7 -8 0
-6 -3 8 0
-7 -9 -4 0
-5 6 4 0
7 -5 -9 0
-9 5 6 0
4 -9 -5 0
